certificates/rado_a5_c181_N36.cnf
c Rad2 upper bound instance: x1 + 5*x2 - x3 = 181, interval [1,36]
p cnf 36 280
1 2 36 0
-1 -2 -36 0
2 3 36 0
-2 -3 -36 0
3 4 36 0
-3 -4 -36 0
4 5 36 0
-4 -5 -36 0
5 6 36 0
-5 -6 -36 0
1 7 35 0
-1 -7 -35 0
6 7 36 0
-6 -7 -36 0
2 8 35 0
-2 -8 -35 0
7 8 36 0
-7 -8 -36 0
3 9 35 0
-3 -9 -35 0
8 9 36 0
-8 -9 -36 0
4 10 35 0
-4 -10 -35 0
9 10 36 0
-9 -10 -36 0
5 11 35 0
-5 -11 -35 0
10 11 36 0
-10 -11 -36 0
1 12 34 0
-1 -12 -34 0
6 12 35 0
-6 -12 -35 0
11 12 36 0
-11 -12 -36 0
2 13 34 0
-2 -13 -34 0
7 13 35 0
-7 -13 -35 0
12 13 36 0
-12 -13 -36 0
3 14 34 0
-3 -14 -34 0
8 14 35 0
-8 -14 -35 0
13 14 36 0
-13 -14 -36 0
4 15 34 0
-4 -15 -34 0
9 15 35 0
-9 -15 -35 0
14 15 36 0
-14 -15 -36 0
5 16 34 0
-5 -16 -34 0
10 16 35 0
-10 -16 -35 0
15 16 36 0
-15 -16 -36 0
1 17 33 0
-1 -17 -33 0
6 17 34 0
-6 -17 -34 0
11 17 35 0
-11 -17 -35 0
16 17 36 0
-16 -17 -36 0
2 18 33 0
-2 -18 -33 0
7 18 34 0
-7 -18 -34 0
12 18 35 0
-12 -18 -35 0
17 18 36 0
-17 -18 -36 0
3 19 33 0
-3 -19 -33 0
8 19 34 0
-8 -19 -34 0
13 19 35 0
-13 -19 -35 0
18 19 36 0
-18 -19 -36 0
4 20 33 0
-4 -20 -33 0
9 20 34 0
-9 -20 -34 0
14 20 35 0
-14 -20 -35 0
19 20 36 0
-19 -20 -36 0
5 21 33 0
-5 -21 -33 0
10 21 34 0
-10 -21 -34 0
15 21 35 0
-15 -21 -35 0
20 21 36 0
-20 -21 -36 0
1 22 32 0
-1 -22 -32 0
6 22 33 0
-6 -22 -33 0
11 22 34 0
-11 -22 -34 0
16 22 35 0
-16 -22 -35 0
21 22 36 0
-21 -22 -36 0
2 23 32 0
-2 -23 -32 0
7 23 33 0
-7 -23 -33 0
12 23 34 0
-12 -23 -34 0
17 23 35 0
-17 -23 -35 0
22 23 36 0
-22 -23 -36 0
3 24 32 0
-3 -24 -32 0
8 24 33 0
-8 -24 -33 0
13 24 34 0
-13 -24 -34 0
18 24 35 0
-18 -24 -35 0
23 24 36 0
-23 -24 -36 0
4 25 32 0
-4 -25 -32 0
9 25 33 0
-9 -25 -33 0
14 25 34 0
-14 -25 -34 0
19 25 35 0
-19 -25 -35 0
24 25 36 0
-24 -25 -36 0
5 26 32 0
-5 -26 -32 0
10 26 33 0
-10 -26 -33 0
15 26 34 0
-15 -26 -34 0
20 26 35 0
-20 -26 -35 0
25 26 36 0
-25 -26 -36 0
1 27 31 0
-1 -27 -31 0
6 27 32 0
-6 -27 -32 0
11 27 33 0
-11 -27 -33 0
16 27 34 0
-16 -27 -34 0
21 27 35 0
-21 -27 -35 0
26 27 36 0
-26 -27 -36 0
2 28 31 0
-2 -28 -31 0
7 28 32 0
-7 -28 -32 0
12 28 33 0
-12 -28 -33 0
17 28 34 0
-17 -28 -34 0
22 28 35 0
-22 -28 -35 0
27 28 36 0
-27 -28 -36 0
3 29 31 0
-3 -29 -31 0
8 29 32 0
-8 -29 -32 0
13 29 33 0
-13 -29 -33 0
18 29 34 0
-18 -29 -34 0
23 29 35 0
-23 -29 -35 0
28 29 36 0
-28 -29 -36 0
4 30 31 0
-4 -30 -31 0
9 30 32 0
-9 -30 -32 0
14 30 33 0
-14 -30 -33 0
19 30 34 0
-19 -30 -34 0
24 30 35 0
-24 -30 -35 0
29 30 36 0
-29 -30 -36 0
5 31 0
-5 -31 0
10 31 32 0
-10 -31 -32 0
15 31 33 0
-15 -31 -33 0
20 31 34 0
-20 -31 -34 0
25 31 35 0
-25 -31 -35 0
30 31 36 0
-30 -31 -36 0
1 30 32 0
-1 -30 -32 0
6 31 32 0
-6 -31 -32 0
11 32 0
-11 -32 0
16 32 33 0
-16 -32 -33 0
21 32 34 0
-21 -32 -34 0
26 32 35 0
-26 -32 -35 0
31 32 36 0
-31 -32 -36 0
2 30 33 0
-2 -30 -33 0
7 31 33 0
-7 -31 -33 0
12 32 33 0
-12 -32 -33 0
17 33 0
-17 -33 0
22 33 34 0
-22 -33 -34 0
27 33 35 0
-27 -33 -35 0
32 33 36 0
-32 -33 -36 0
3 30 34 0
-3 -30 -34 0
8 31 34 0
-8 -31 -34 0
13 32 34 0
-13 -32 -34 0
18 33 34 0
-18 -33 -34 0
23 34 0
-23 -34 0
28 34 35 0
-28 -34 -35 0
33 34 36 0
-33 -34 -36 0
4 30 35 0
-4 -30 -35 0
9 31 35 0
-9 -31 -35 0
14 32 35 0
-14 -32 -35 0
19 33 35 0
-19 -33 -35 0
24 34 35 0
-24 -34 -35 0
29 35 0
-29 -35 0
34 35 36 0
-34 -35 -36 0
5 30 36 0
-5 -30 -36 0
10 31 36 0
-10 -31 -36 0
15 32 36 0
-15 -32 -36 0
20 33 36 0
-20 -33 -36 0
25 34 36 0
-25 -34 -36 0
30 35 36 0
-30 -35 -36 0
35 36 0
-35 -36 0
