certificates/rado_a5_c181_N36.drat
-36 0
35 0
-29 0
28 0
30 0
-22 0
-34 0
-24 0
-4 0
11 0
21 0
23 0
33 0
25 0
18 0
13 0
3 0
5 0
15 0
0
